100 8
312 228
367 654
218 146
224 220
564 896
889 524
735 790
139 119
214 83
625 221
153 248
337 317
119 171
817 730
121 233
632 437
738 110
359 54
694 210
837 276
559 920
831 413
954 384
106 988
262 277
926 503
293 194
213 498
185 458
147 337
282 112
184 372
756 165
672 681
137 315
194 116
169 117
751 621
400 202
825 381
857 317
618 660
490 395
403 679
733 63
500 667
483 857
330 58
169 118
808 323
561 507
114 909
184 191
729 216
392 440
161 250
698 193
598 68
784 163
222 169
147 432
626 492
811 849
918 516
420 404
378 128
63 910
274 193
797 325
190 127
755 239
205 931
863 248
259 88
532 836
923 566
668 194
555 606
589 848
486 535
922 540
620 836
809 346
432 199
495 493
665 756
589 907
166 301
685 529
917 431
409 392
604 93
104 872
667 166
608 78
981 600
579 57
447 511
285 176
927 332
